experiments/sat_smt/run/sat-r+/results/kate_garry_craig.res
solved=true
solvingTime=633.35650634765625
nActions=15