experiments/sat_smt/run/sat-r+/results/kate_garry_craig.out
Timesteps: 1
s UNSATISFIABLE
real 0.18
user 0.02
sys 0.00
Timesteps: 2
s UNSATISFIABLE
real 0.17
user 0.04
sys 0.00
Timesteps: 3
s UNSATISFIABLE
real 0.20
user 0.09
sys 0.00
Timesteps: 4
s UNSATISFIABLE
real 0.41
user 0.17
sys 0.01
Timesteps: 5
s UNSATISFIABLE
real 1.16
user 0.82
sys 0.02
Timesteps: 6
s UNSATISFIABLE
real 1.10
user 0.87
sys 0.01
Timesteps: 7
s UNSATISFIABLE
real 3.39
user 2.89
sys 0.03
Timesteps: 8
s UNSATISFIABLE
real 5.53
user 5.26
sys 0.03
Timesteps: 9
s UNSATISFIABLE
real 20.88
user 20.15
sys 0.05
Timesteps: 10
s UNSATISFIABLE
real 33.31
user 32.35
sys 0.08
Timesteps: 11
s UNSATISFIABLE
real 23.06
user 22.31
sys 0.07
Timesteps: 12
s UNSATISFIABLE
real 38.20
user 37.21
sys 0.08
Timesteps: 13
s UNSATISFIABLE
real 99.15
user 98.22
sys 0.16
Timesteps: 14
s UNSATISFIABLE
real 265.16
user 263.42
sys 0.31
Timesteps: 15
s SATISFIABLE
real 145.51
user 144.30
sys 0.22
